benchmark/results/graph__10-1000-0.10-04_6/graph__10-1000-0.10-04_6_QuintonOs_Benders_sub.lp
\ This file has been generated by DOcplex
\ ENCODING=ISO-8859-1
\Problem name: Quinton Bounded Benders_dual_sub

Minimize
 obj: 0.001319261214 pi_nr_a0 + 0.001157407407 pi_nr_a1
      + 0.000817661488 pi_nr_a2 + 0.002915451895 pi_nr_a3
      + 0.002604166667 pi_nr_a4 + 0.001470588235 pi_nr_a5
      + 0.001782531194 pi_nr_a6 + 0.001257861635 pi_nr_a7
      + 0.000882612533 pi_nr_a8 + 0.000896057348 pi_nr_a9 + pi_p_a2_a8
      + pi_p_a1_a1 + pi_p_a0_a7 + pi_p_a6_a8 + pi_p_a2_a5 + pi_p_a0_a9
      + pi_p_a8_a7 + 1278 pi_d_a0_a1_proc_2 + 1251 pi_d_a1_a0_proc_2
      + pi_d_a2_a0_proc_3 + 2542 pi_d_a0_a3_proc_2 + 1278 pi_d_a0_a3_proc_3
      + 2542 pi_d_a0_a3_proc_1 + 2515 pi_d_a3_a0_proc_2 + 1251 pi_d_a3_a0_proc_3
      + 2515 pi_d_a3_a0_proc_1 + 1278 pi_d_a0_a4_proc_2 + 1278 pi_d_a0_a4_proc_3
      + 1251 pi_d_a4_a0_proc_2 + 1251 pi_d_a4_a0_proc_3 + 2542 pi_d_a0_a5_proc_2
      + 2542 pi_d_a0_a5_proc_1 + 2515 pi_d_a5_a0_proc_2 + 2515 pi_d_a5_a0_proc_1
      + 2542 pi_d_a0_a6_proc_2 + 1278 pi_d_a0_a6_proc_3 + 1278 pi_d_a0_a6_proc_1
      + 2515 pi_d_a6_a0_proc_2 + 1251 pi_d_a6_a0_proc_3 + 1251 pi_d_a6_a0_proc_1
      + 2542 pi_d_a0_a7_proc_2 + 1278 pi_d_a0_a7_proc_3 + 2542 pi_d_a0_a7_proc_1
      + 2515 pi_d_a7_a0_proc_2 + 1251 pi_d_a7_a0_proc_3 + 2515 pi_d_a7_a0_proc_1
      + 2542 pi_d_a0_a8_proc_2 + 1278 pi_d_a0_a8_proc_3 + 1278 pi_d_a0_a8_proc_1
      + 2515 pi_d_a8_a0_proc_2 + 1251 pi_d_a8_a0_proc_3 + 1251 pi_d_a8_a0_proc_1
      + 2542 pi_d_a0_a9_proc_2 + 2542 pi_d_a0_a9_proc_1 + 2515 pi_d_a9_a0_proc_2
      + 2515 pi_d_a9_a0_proc_1 + 1278 pi_d_a1_a3_proc_2 + 1278 pi_d_a1_a3_proc_0
      + 1251 pi_d_a3_a1_proc_2 + 1251 pi_d_a3_a1_proc_0 + pi_d_a1_a4_proc_2
      + 2529 pi_d_a1_a4_proc_0 + 2528 pi_d_a4_a1_proc_0 + 1278 pi_d_a1_a5_proc_2
      + 1278 pi_d_a1_a5_proc_0 + 1251 pi_d_a5_a1_proc_2 + 1251 pi_d_a5_a1_proc_0
      + 1278 pi_d_a1_a6_proc_2 + 2542 pi_d_a1_a6_proc_0 + 1251 pi_d_a6_a1_proc_2
      + 2515 pi_d_a6_a1_proc_0 + 1278 pi_d_a1_a7_proc_2 + 1278 pi_d_a1_a7_proc_0
      + 1251 pi_d_a7_a1_proc_2 + 1251 pi_d_a7_a1_proc_0 + 1278 pi_d_a1_a8_proc_2
      + 1251 pi_d_a8_a1_proc_2 + 1251 pi_d_a1_a9_proc_2 + 1251 pi_d_a1_a9_proc_0
      + 1278 pi_d_a9_a1_proc_2 + 1278 pi_d_a9_a1_proc_0 + 1278 pi_d_a2_a3_proc_3
      + 1251 pi_d_a3_a2_proc_3 + 1278 pi_d_a2_a4_proc_3 + 1251 pi_d_a4_a2_proc_3
      + 1278 pi_d_a2_a6_proc_3 + 1251 pi_d_a6_a2_proc_3 + 1278 pi_d_a2_a7_proc_3
      + 1251 pi_d_a7_a2_proc_3 + 1278 pi_d_a2_a8_proc_3 + 1251 pi_d_a8_a2_proc_3
      + 1278 pi_d_a3_a4_proc_2 + 2542 pi_d_a3_a4_proc_3 + 1278 pi_d_a3_a4_proc_0
      + 1251 pi_d_a4_a3_proc_2 + 2515 pi_d_a4_a3_proc_3 + 1251 pi_d_a4_a3_proc_0
      + 2529 pi_d_a3_a5_proc_2 + pi_d_a3_a5_proc_0 + 2529 pi_d_a3_a5_proc_1
      + 2528 pi_d_a5_a3_proc_2 + 2528 pi_d_a5_a3_proc_1 + 2542 pi_d_a3_a6_proc_2
      + 2542 pi_d_a3_a6_proc_3 + 1278 pi_d_a3_a6_proc_0 + 1278 pi_d_a3_a6_proc_1
      + 2515 pi_d_a6_a3_proc_2 + 2515 pi_d_a6_a3_proc_3 + 1251 pi_d_a6_a3_proc_0
      + 1251 pi_d_a6_a3_proc_1 + 2529 pi_d_a3_a7_proc_2 + 2529 pi_d_a3_a7_proc_3
      + pi_d_a3_a7_proc_0 + 2529 pi_d_a3_a7_proc_1 + 2528 pi_d_a7_a3_proc_2
      + 2528 pi_d_a7_a3_proc_3 + 2528 pi_d_a7_a3_proc_1 + 2542 pi_d_a3_a8_proc_2
      + 2542 pi_d_a3_a8_proc_3 + 1278 pi_d_a3_a8_proc_1 + 2515 pi_d_a8_a3_proc_2
      + 2515 pi_d_a8_a3_proc_3 + 1251 pi_d_a8_a3_proc_1 + 2529 pi_d_a3_a9_proc_2
      + pi_d_a3_a9_proc_0 + 2529 pi_d_a3_a9_proc_1 + 2528 pi_d_a9_a3_proc_2
      + 2528 pi_d_a9_a3_proc_1 + 1278 pi_d_a4_a5_proc_2 + 1278 pi_d_a4_a5_proc_0
      + 1251 pi_d_a5_a4_proc_2 + 1251 pi_d_a5_a4_proc_0 + 1278 pi_d_a4_a6_proc_2
      + 2542 pi_d_a4_a6_proc_3 + 2542 pi_d_a4_a6_proc_0 + 1251 pi_d_a6_a4_proc_2
      + 2515 pi_d_a6_a4_proc_3 + 2515 pi_d_a6_a4_proc_0 + 1278 pi_d_a4_a7_proc_2
      + 2542 pi_d_a4_a7_proc_3 + 1278 pi_d_a4_a7_proc_0 + 1251 pi_d_a7_a4_proc_2
      + 2515 pi_d_a7_a4_proc_3 + 1251 pi_d_a7_a4_proc_0 + 1278 pi_d_a4_a8_proc_2
      + 2542 pi_d_a4_a8_proc_3 + 1251 pi_d_a8_a4_proc_2 + 2515 pi_d_a8_a4_proc_3
      + 1278 pi_d_a4_a9_proc_2 + 1278 pi_d_a4_a9_proc_0 + 1251 pi_d_a9_a4_proc_2
      + 1251 pi_d_a9_a4_proc_0 + 2515 pi_d_a5_a6_proc_2 + 1251 pi_d_a5_a6_proc_0
      + 1251 pi_d_a5_a6_proc_1 + 2542 pi_d_a6_a5_proc_2 + 1278 pi_d_a6_a5_proc_0
      + 1278 pi_d_a6_a5_proc_1 + 2529 pi_d_a5_a7_proc_2 + pi_d_a5_a7_proc_0
      + 2529 pi_d_a5_a7_proc_1 + 2528 pi_d_a7_a5_proc_2 + 2528 pi_d_a7_a5_proc_1
      + 2542 pi_d_a5_a8_proc_2 + 1278 pi_d_a5_a8_proc_1 + 2515 pi_d_a8_a5_proc_2
      + 1251 pi_d_a8_a5_proc_1 + 2529 pi_d_a5_a9_proc_2 + pi_d_a5_a9_proc_0
      + 2529 pi_d_a5_a9_proc_1 + 2528 pi_d_a9_a5_proc_2 + 2528 pi_d_a9_a5_proc_1
      + 2542 pi_d_a6_a7_proc_2 + 2542 pi_d_a6_a7_proc_3 + 1278 pi_d_a6_a7_proc_0
      + 1278 pi_d_a6_a7_proc_1 + 2515 pi_d_a7_a6_proc_2 + 2515 pi_d_a7_a6_proc_3
      + 1251 pi_d_a7_a6_proc_0 + 1251 pi_d_a7_a6_proc_1 + 2529 pi_d_a6_a8_proc_2
      + 2529 pi_d_a6_a8_proc_3 + pi_d_a6_a8_proc_1 + 2528 pi_d_a8_a6_proc_2
      + 2528 pi_d_a8_a6_proc_3 + 2542 pi_d_a6_a9_proc_2 + 1278 pi_d_a6_a9_proc_0
      + 1278 pi_d_a6_a9_proc_1 + 2515 pi_d_a9_a6_proc_2 + 1251 pi_d_a9_a6_proc_0
      + 1251 pi_d_a9_a6_proc_1 + 2542 pi_d_a7_a8_proc_2 + 2542 pi_d_a7_a8_proc_3
      + 1278 pi_d_a7_a8_proc_1 + 2515 pi_d_a8_a7_proc_2 + 2515 pi_d_a8_a7_proc_3
      + 1251 pi_d_a8_a7_proc_1 + 2529 pi_d_a7_a9_proc_2 + pi_d_a7_a9_proc_0
      + 2529 pi_d_a7_a9_proc_1 + 2528 pi_d_a9_a7_proc_2 + 2528 pi_d_a9_a7_proc_1
      + 2515 pi_d_a8_a9_proc_2 + 1251 pi_d_a8_a9_proc_1 + 2542 pi_d_a9_a8_proc_2
      + 1278 pi_d_a9_a8_proc_1 + pi_y2_a0_proc_3 + pi_y2_a1_proc_2
      + pi_y2_a2_proc_3 + pi_y2_a3_proc_0 + pi_y2_a4_proc_2 + pi_y2_a5_proc_0
      + pi_y2_a6_proc_1 + pi_y2_a7_proc_0 + pi_y2_a8_proc_1 + pi_y2_a9_proc_0
Subject To
 c1: pi_nr_a0 + pi_nr_a1 + pi_nr_a2 + pi_nr_a3 + pi_nr_a4 + pi_nr_a5 + pi_nr_a6
     + pi_nr_a7 + pi_nr_a8 + pi_nr_a9 - pi_y1_a0 - pi_y1_a1 - pi_y1_a2
     - pi_y1_a3 - pi_y1_a4 - pi_y1_a5 - pi_y1_a6 - pi_y1_a7 - pi_y1_a8
     - pi_y1_a9 >= 1
 c2: pi_p_a0_a1 - pi_p_a4_a0 - pi_p_a7_a0 - pi_p_a9_a0 + pi_p_a0_a7 + pi_p_a0_a9
     + pi_d_a0_a1_proc_2 - pi_d_a1_a0_proc_2 + pi_d_a0_a2_proc_3
     - pi_d_a2_a0_proc_3 + pi_d_a0_a3_proc_2 + pi_d_a0_a3_proc_3
     + pi_d_a0_a3_proc_1 - pi_d_a3_a0_proc_2 - pi_d_a3_a0_proc_3
     - pi_d_a3_a0_proc_1 + pi_d_a0_a4_proc_2 + pi_d_a0_a4_proc_3
     - pi_d_a4_a0_proc_2 - pi_d_a4_a0_proc_3 + pi_d_a0_a5_proc_2
     + pi_d_a0_a5_proc_1 - pi_d_a5_a0_proc_2 - pi_d_a5_a0_proc_1
     + pi_d_a0_a6_proc_2 + pi_d_a0_a6_proc_3 + pi_d_a0_a6_proc_1
     - pi_d_a6_a0_proc_2 - pi_d_a6_a0_proc_3 - pi_d_a6_a0_proc_1
     + pi_d_a0_a7_proc_2 + pi_d_a0_a7_proc_3 + pi_d_a0_a7_proc_1
     - pi_d_a7_a0_proc_2 - pi_d_a7_a0_proc_3 - pi_d_a7_a0_proc_1
     + pi_d_a0_a8_proc_2 + pi_d_a0_a8_proc_3 + pi_d_a0_a8_proc_1
     - pi_d_a8_a0_proc_2 - pi_d_a8_a0_proc_3 - pi_d_a8_a0_proc_1
     + pi_d_a0_a9_proc_2 + pi_d_a0_a9_proc_1 - pi_d_a9_a0_proc_2
     - pi_d_a9_a0_proc_1 >= 0
 c3: 998 pi_p_a0_a1 + 998 pi_p_a0_a7 + 998 pi_p_a0_a9 + 998 pi_d_a0_a3_proc_1
     + 998 pi_d_a0_a5_proc_1 + 998 pi_d_a0_a6_proc_1 + 998 pi_d_a0_a7_proc_1
     + 998 pi_d_a0_a8_proc_1 + 998 pi_d_a0_a9_proc_1 + pi_y1_a0
     + pi_y2_a0_proc_1 >= 0
 c4: 1093 pi_p_a0_a1 + 1093 pi_p_a0_a7 + 1093 pi_p_a0_a9
     + 1093 pi_d_a0_a1_proc_2 + 1093 pi_d_a0_a3_proc_2 + 1093 pi_d_a0_a4_proc_2
     + 1093 pi_d_a0_a5_proc_2 + 1093 pi_d_a0_a6_proc_2 + 1093 pi_d_a0_a7_proc_2
     + 1093 pi_d_a0_a8_proc_2 + 1093 pi_d_a0_a9_proc_2 + pi_y1_a0
     + pi_y2_a0_proc_2 >= 0
 c5: 758 pi_p_a0_a1 + 758 pi_p_a0_a7 + 758 pi_p_a0_a9 + 758 pi_d_a0_a2_proc_3
     + 758 pi_d_a0_a3_proc_3 + 758 pi_d_a0_a4_proc_3 + 758 pi_d_a0_a6_proc_3
     + 758 pi_d_a0_a7_proc_3 + 758 pi_d_a0_a8_proc_3 + pi_y1_a0
     + pi_y2_a0_proc_3 >= 0
 c6: - pi_p_a0_a1 + pi_p_a1_a2 - pi_d_a0_a1_proc_2 + pi_d_a1_a0_proc_2
     + pi_d_a1_a3_proc_2 + pi_d_a1_a3_proc_0 - pi_d_a3_a1_proc_2
     - pi_d_a3_a1_proc_0 + pi_d_a1_a4_proc_2 + pi_d_a1_a4_proc_0
     - pi_d_a4_a1_proc_2 - pi_d_a4_a1_proc_0 + pi_d_a1_a5_proc_2
     + pi_d_a1_a5_proc_0 - pi_d_a5_a1_proc_2 - pi_d_a5_a1_proc_0
     + pi_d_a1_a6_proc_2 + pi_d_a1_a6_proc_0 - pi_d_a6_a1_proc_2
     - pi_d_a6_a1_proc_0 + pi_d_a1_a7_proc_2 + pi_d_a1_a7_proc_0
     - pi_d_a7_a1_proc_2 - pi_d_a7_a1_proc_0 + pi_d_a1_a8_proc_2
     - pi_d_a8_a1_proc_2 + pi_d_a1_a9_proc_2 + pi_d_a1_a9_proc_0
     - pi_d_a9_a1_proc_2 - pi_d_a9_a1_proc_0 >= 0
 c7: 978 pi_p_a1_a2 + 978 pi_p_a1_a1 + 978 pi_d_a1_a3_proc_0
     + 978 pi_d_a1_a4_proc_0 + 978 pi_d_a1_a5_proc_0 + 978 pi_d_a1_a6_proc_0
     + 978 pi_d_a1_a7_proc_0 + 978 pi_d_a1_a9_proc_0 + pi_y1_a1
     + pi_y2_a1_proc_0 >= 0
 c8: 864 pi_p_a1_a2 + 864 pi_p_a1_a1 + 864 pi_d_a1_a0_proc_2
     + 864 pi_d_a1_a3_proc_2 + 864 pi_d_a1_a4_proc_2 + 864 pi_d_a1_a5_proc_2
     + 864 pi_d_a1_a6_proc_2 + 864 pi_d_a1_a7_proc_2 + 864 pi_d_a1_a8_proc_2
     + 864 pi_d_a1_a9_proc_2 + pi_y1_a1 + pi_y2_a1_proc_2 >= 0
 c9: - pi_p_a1_a2 - pi_p_a3_a2 + pi_p_a2_a8 + pi_p_a2_a5 - pi_d_a0_a2_proc_3
     + pi_d_a2_a0_proc_3 + pi_d_a2_a3_proc_3 - pi_d_a3_a2_proc_3
     + pi_d_a2_a4_proc_3 - pi_d_a4_a2_proc_3 + pi_d_a2_a6_proc_3
     - pi_d_a6_a2_proc_3 + pi_d_a2_a7_proc_3 - pi_d_a7_a2_proc_3
     + pi_d_a2_a8_proc_3 - pi_d_a8_a2_proc_3 >= 0
 c10: 1223 pi_p_a2_a8 + 1223 pi_p_a2_a5 + 1223 pi_d_a2_a0_proc_3
      + 1223 pi_d_a2_a3_proc_3 + 1223 pi_d_a2_a4_proc_3 + 1223 pi_d_a2_a6_proc_3
      + 1223 pi_d_a2_a7_proc_3 + 1223 pi_d_a2_a8_proc_3 + pi_y1_a2
      + pi_y2_a2_proc_3 >= 0
 c11: pi_p_a3_a2 + pi_p_a3_a6 - pi_p_a8_a3 - pi_d_a0_a3_proc_2
      - pi_d_a0_a3_proc_3 - pi_d_a0_a3_proc_1 + pi_d_a3_a0_proc_2
      + pi_d_a3_a0_proc_3 + pi_d_a3_a0_proc_1 - pi_d_a1_a3_proc_2
      - pi_d_a1_a3_proc_0 + pi_d_a3_a1_proc_2 + pi_d_a3_a1_proc_0
      - pi_d_a2_a3_proc_3 + pi_d_a3_a2_proc_3 + pi_d_a3_a4_proc_2
      + pi_d_a3_a4_proc_3 + pi_d_a3_a4_proc_0 - pi_d_a4_a3_proc_2
      - pi_d_a4_a3_proc_3 - pi_d_a4_a3_proc_0 + pi_d_a3_a5_proc_2
      + pi_d_a3_a5_proc_0 + pi_d_a3_a5_proc_1 - pi_d_a5_a3_proc_2
      - pi_d_a5_a3_proc_0 - pi_d_a5_a3_proc_1 + pi_d_a3_a6_proc_2
      + pi_d_a3_a6_proc_3 + pi_d_a3_a6_proc_0 + pi_d_a3_a6_proc_1
      - pi_d_a6_a3_proc_2 - pi_d_a6_a3_proc_3 - pi_d_a6_a3_proc_0
      - pi_d_a6_a3_proc_1 + pi_d_a3_a7_proc_2 + pi_d_a3_a7_proc_3
      + pi_d_a3_a7_proc_0 + pi_d_a3_a7_proc_1 - pi_d_a7_a3_proc_2
      - pi_d_a7_a3_proc_3 - pi_d_a7_a3_proc_0 - pi_d_a7_a3_proc_1
      + pi_d_a3_a8_proc_2 + pi_d_a3_a8_proc_3 + pi_d_a3_a8_proc_1
      - pi_d_a8_a3_proc_2 - pi_d_a8_a3_proc_3 - pi_d_a8_a3_proc_1
      + pi_d_a3_a9_proc_2 + pi_d_a3_a9_proc_0 + pi_d_a3_a9_proc_1
      - pi_d_a9_a3_proc_2 - pi_d_a9_a3_proc_0 - pi_d_a9_a3_proc_1 >= 0
 c12: 343 pi_p_a3_a2 + 343 pi_p_a3_a6 + 343 pi_d_a3_a1_proc_0
      + 343 pi_d_a3_a4_proc_0 + 343 pi_d_a3_a5_proc_0 + 343 pi_d_a3_a6_proc_0
      + 343 pi_d_a3_a7_proc_0 + 343 pi_d_a3_a9_proc_0 + pi_y1_a3
      + pi_y2_a3_proc_0 >= 0
 c13: 852 pi_p_a3_a2 + 852 pi_p_a3_a6 + 852 pi_d_a3_a0_proc_1
      + 852 pi_d_a3_a5_proc_1 + 852 pi_d_a3_a6_proc_1 + 852 pi_d_a3_a7_proc_1
      + 852 pi_d_a3_a8_proc_1 + 852 pi_d_a3_a9_proc_1 + pi_y1_a3
      + pi_y2_a3_proc_1 >= 0
 c14: 691 pi_p_a3_a2 + 691 pi_p_a3_a6 + 691 pi_d_a3_a0_proc_2
      + 691 pi_d_a3_a1_proc_2 + 691 pi_d_a3_a4_proc_2 + 691 pi_d_a3_a5_proc_2
      + 691 pi_d_a3_a6_proc_2 + 691 pi_d_a3_a7_proc_2 + 691 pi_d_a3_a8_proc_2
      + 691 pi_d_a3_a9_proc_2 + pi_y1_a3 + pi_y2_a3_proc_2 >= 0
 c15: 1264 pi_p_a3_a2 + 1264 pi_p_a3_a6 + 1264 pi_d_a3_a0_proc_3
      + 1264 pi_d_a3_a2_proc_3 + 1264 pi_d_a3_a4_proc_3 + 1264 pi_d_a3_a6_proc_3
      + 1264 pi_d_a3_a7_proc_3 + 1264 pi_d_a3_a8_proc_3 + pi_y1_a3
      + pi_y2_a3_proc_3 >= 0
 c16: pi_p_a4_a0 - pi_p_a5_a4 - pi_p_a7_a4 - pi_d_a0_a4_proc_2
      - pi_d_a0_a4_proc_3 + pi_d_a4_a0_proc_2 + pi_d_a4_a0_proc_3
      - pi_d_a1_a4_proc_2 - pi_d_a1_a4_proc_0 + pi_d_a4_a1_proc_2
      + pi_d_a4_a1_proc_0 - pi_d_a2_a4_proc_3 + pi_d_a4_a2_proc_3
      - pi_d_a3_a4_proc_2 - pi_d_a3_a4_proc_3 - pi_d_a3_a4_proc_0
      + pi_d_a4_a3_proc_2 + pi_d_a4_a3_proc_3 + pi_d_a4_a3_proc_0
      + pi_d_a4_a5_proc_2 + pi_d_a4_a5_proc_0 - pi_d_a5_a4_proc_2
      - pi_d_a5_a4_proc_0 + pi_d_a4_a6_proc_2 + pi_d_a4_a6_proc_3
      + pi_d_a4_a6_proc_0 - pi_d_a6_a4_proc_2 - pi_d_a6_a4_proc_3
      - pi_d_a6_a4_proc_0 + pi_d_a4_a7_proc_2 + pi_d_a4_a7_proc_3
      + pi_d_a4_a7_proc_0 - pi_d_a7_a4_proc_2 - pi_d_a7_a4_proc_3
      - pi_d_a7_a4_proc_0 + pi_d_a4_a8_proc_2 + pi_d_a4_a8_proc_3
      - pi_d_a8_a4_proc_2 - pi_d_a8_a4_proc_3 + pi_d_a4_a9_proc_2
      + pi_d_a4_a9_proc_0 - pi_d_a9_a4_proc_2 - pi_d_a9_a4_proc_0 >= 0
 c17: 628 pi_p_a4_a0 + 628 pi_d_a4_a1_proc_0 + 628 pi_d_a4_a3_proc_0
      + 628 pi_d_a4_a5_proc_0 + 628 pi_d_a4_a6_proc_0 + 628 pi_d_a4_a7_proc_0
      + 628 pi_d_a4_a9_proc_0 + pi_y1_a4 + pi_y2_a4_proc_0 >= 0
 c18: 384 pi_p_a4_a0 + 384 pi_d_a4_a0_proc_2 + 384 pi_d_a4_a1_proc_2
      + 384 pi_d_a4_a3_proc_2 + 384 pi_d_a4_a5_proc_2 + 384 pi_d_a4_a6_proc_2
      + 384 pi_d_a4_a7_proc_2 + 384 pi_d_a4_a8_proc_2 + 384 pi_d_a4_a9_proc_2
      + pi_y1_a4 + pi_y2_a4_proc_2 >= 0
 c19: 973 pi_p_a4_a0 + 973 pi_d_a4_a0_proc_3 + 973 pi_d_a4_a2_proc_3
      + 973 pi_d_a4_a3_proc_3 + 973 pi_d_a4_a6_proc_3 + 973 pi_d_a4_a7_proc_3
      + 973 pi_d_a4_a8_proc_3 + pi_y1_a4 + pi_y2_a4_proc_3 >= 0
 c20: pi_p_a5_a4 - pi_p_a2_a5 - pi_d_a0_a5_proc_2 - pi_d_a0_a5_proc_1
      + pi_d_a5_a0_proc_2 + pi_d_a5_a0_proc_1 - pi_d_a1_a5_proc_2
      - pi_d_a1_a5_proc_0 + pi_d_a5_a1_proc_2 + pi_d_a5_a1_proc_0
      - pi_d_a3_a5_proc_2 - pi_d_a3_a5_proc_0 - pi_d_a3_a5_proc_1
      + pi_d_a5_a3_proc_2 + pi_d_a5_a3_proc_0 + pi_d_a5_a3_proc_1
      - pi_d_a4_a5_proc_2 - pi_d_a4_a5_proc_0 + pi_d_a5_a4_proc_2
      + pi_d_a5_a4_proc_0 + pi_d_a5_a6_proc_2 + pi_d_a5_a6_proc_0
      + pi_d_a5_a6_proc_1 - pi_d_a6_a5_proc_2 - pi_d_a6_a5_proc_0
      - pi_d_a6_a5_proc_1 + pi_d_a5_a7_proc_2 + pi_d_a5_a7_proc_0
      + pi_d_a5_a7_proc_1 - pi_d_a7_a5_proc_2 - pi_d_a7_a5_proc_0
      - pi_d_a7_a5_proc_1 + pi_d_a5_a8_proc_2 + pi_d_a5_a8_proc_1
      - pi_d_a8_a5_proc_2 - pi_d_a8_a5_proc_1 + pi_d_a5_a9_proc_2
      + pi_d_a5_a9_proc_0 + pi_d_a5_a9_proc_1 - pi_d_a9_a5_proc_2
      - pi_d_a9_a5_proc_0 - pi_d_a9_a5_proc_1 >= 0
 c21: 680 pi_p_a5_a4 + 680 pi_d_a5_a1_proc_0 + 680 pi_d_a5_a3_proc_0
      + 680 pi_d_a5_a4_proc_0 + 680 pi_d_a5_a6_proc_0 + 680 pi_d_a5_a7_proc_0
      + 680 pi_d_a5_a9_proc_0 + pi_y1_a5 + pi_y2_a5_proc_0 >= 0
 c22: 796 pi_p_a5_a4 + 796 pi_d_a5_a0_proc_1 + 796 pi_d_a5_a3_proc_1
      + 796 pi_d_a5_a6_proc_1 + 796 pi_d_a5_a7_proc_1 + 796 pi_d_a5_a8_proc_1
      + 796 pi_d_a5_a9_proc_1 + pi_y1_a5 + pi_y2_a5_proc_1 >= 0
 c23: 843 pi_p_a5_a4 + 843 pi_d_a5_a0_proc_2 + 843 pi_d_a5_a1_proc_2
      + 843 pi_d_a5_a3_proc_2 + 843 pi_d_a5_a4_proc_2 + 843 pi_d_a5_a6_proc_2
      + 843 pi_d_a5_a7_proc_2 + 843 pi_d_a5_a8_proc_2 + 843 pi_d_a5_a9_proc_2
      + pi_y1_a5 + pi_y2_a5_proc_2 >= 0
 c24: - pi_p_a3_a6 + pi_p_a6_a8 - pi_d_a0_a6_proc_2 - pi_d_a0_a6_proc_3
      - pi_d_a0_a6_proc_1 + pi_d_a6_a0_proc_2 + pi_d_a6_a0_proc_3
      + pi_d_a6_a0_proc_1 - pi_d_a1_a6_proc_2 - pi_d_a1_a6_proc_0
      + pi_d_a6_a1_proc_2 + pi_d_a6_a1_proc_0 - pi_d_a2_a6_proc_3
      + pi_d_a6_a2_proc_3 - pi_d_a3_a6_proc_2 - pi_d_a3_a6_proc_3
      - pi_d_a3_a6_proc_0 - pi_d_a3_a6_proc_1 + pi_d_a6_a3_proc_2
      + pi_d_a6_a3_proc_3 + pi_d_a6_a3_proc_0 + pi_d_a6_a3_proc_1
      - pi_d_a4_a6_proc_2 - pi_d_a4_a6_proc_3 - pi_d_a4_a6_proc_0
      + pi_d_a6_a4_proc_2 + pi_d_a6_a4_proc_3 + pi_d_a6_a4_proc_0
      - pi_d_a5_a6_proc_2 - pi_d_a5_a6_proc_0 - pi_d_a5_a6_proc_1
      + pi_d_a6_a5_proc_2 + pi_d_a6_a5_proc_0 + pi_d_a6_a5_proc_1
      + pi_d_a6_a7_proc_2 + pi_d_a6_a7_proc_3 + pi_d_a6_a7_proc_0
      + pi_d_a6_a7_proc_1 - pi_d_a7_a6_proc_2 - pi_d_a7_a6_proc_3
      - pi_d_a7_a6_proc_0 - pi_d_a7_a6_proc_1 + pi_d_a6_a8_proc_2
      + pi_d_a6_a8_proc_3 + pi_d_a6_a8_proc_1 - pi_d_a8_a6_proc_2
      - pi_d_a8_a6_proc_3 - pi_d_a8_a6_proc_1 + pi_d_a6_a9_proc_2
      + pi_d_a6_a9_proc_0 + pi_d_a6_a9_proc_1 - pi_d_a9_a6_proc_2
      - pi_d_a9_a6_proc_0 - pi_d_a9_a6_proc_1 >= 0
 c25: 674 pi_p_a6_a8 + 674 pi_d_a6_a1_proc_0 + 674 pi_d_a6_a3_proc_0
      + 674 pi_d_a6_a4_proc_0 + 674 pi_d_a6_a5_proc_0 + 674 pi_d_a6_a7_proc_0
      + 674 pi_d_a6_a9_proc_0 + pi_y1_a6 + pi_y2_a6_proc_0 >= 0
 c26: 561 pi_p_a6_a8 + 561 pi_d_a6_a0_proc_1 + 561 pi_d_a6_a3_proc_1
      + 561 pi_d_a6_a5_proc_1 + 561 pi_d_a6_a7_proc_1 + 561 pi_d_a6_a8_proc_1
      + 561 pi_d_a6_a9_proc_1 + pi_y1_a6 + pi_y2_a6_proc_1 >= 0
 c27: 860 pi_p_a6_a8 + 860 pi_d_a6_a0_proc_2 + 860 pi_d_a6_a1_proc_2
      + 860 pi_d_a6_a3_proc_2 + 860 pi_d_a6_a4_proc_2 + 860 pi_d_a6_a5_proc_2
      + 860 pi_d_a6_a7_proc_2 + 860 pi_d_a6_a8_proc_2 + 860 pi_d_a6_a9_proc_2
      + pi_y1_a6 + pi_y2_a6_proc_2 >= 0
 c28: 1050 pi_p_a6_a8 + 1050 pi_d_a6_a0_proc_3 + 1050 pi_d_a6_a2_proc_3
      + 1050 pi_d_a6_a3_proc_3 + 1050 pi_d_a6_a4_proc_3 + 1050 pi_d_a6_a7_proc_3
      + 1050 pi_d_a6_a8_proc_3 + pi_y1_a6 + pi_y2_a6_proc_3 >= 0
 c29: pi_p_a7_a0 - pi_p_a0_a7 + pi_p_a7_a4 - pi_p_a9_a7 - pi_p_a8_a7
      - pi_d_a0_a7_proc_2 - pi_d_a0_a7_proc_3 - pi_d_a0_a7_proc_1
      + pi_d_a7_a0_proc_2 + pi_d_a7_a0_proc_3 + pi_d_a7_a0_proc_1
      - pi_d_a1_a7_proc_2 - pi_d_a1_a7_proc_0 + pi_d_a7_a1_proc_2
      + pi_d_a7_a1_proc_0 - pi_d_a2_a7_proc_3 + pi_d_a7_a2_proc_3
      - pi_d_a3_a7_proc_2 - pi_d_a3_a7_proc_3 - pi_d_a3_a7_proc_0
      - pi_d_a3_a7_proc_1 + pi_d_a7_a3_proc_2 + pi_d_a7_a3_proc_3
      + pi_d_a7_a3_proc_0 + pi_d_a7_a3_proc_1 - pi_d_a4_a7_proc_2
      - pi_d_a4_a7_proc_3 - pi_d_a4_a7_proc_0 + pi_d_a7_a4_proc_2
      + pi_d_a7_a4_proc_3 + pi_d_a7_a4_proc_0 - pi_d_a5_a7_proc_2
      - pi_d_a5_a7_proc_0 - pi_d_a5_a7_proc_1 + pi_d_a7_a5_proc_2
      + pi_d_a7_a5_proc_0 + pi_d_a7_a5_proc_1 - pi_d_a6_a7_proc_2
      - pi_d_a6_a7_proc_3 - pi_d_a6_a7_proc_0 - pi_d_a6_a7_proc_1
      + pi_d_a7_a6_proc_2 + pi_d_a7_a6_proc_3 + pi_d_a7_a6_proc_0
      + pi_d_a7_a6_proc_1 + pi_d_a7_a8_proc_2 + pi_d_a7_a8_proc_3
      + pi_d_a7_a8_proc_1 - pi_d_a8_a7_proc_2 - pi_d_a8_a7_proc_3
      - pi_d_a8_a7_proc_1 + pi_d_a7_a9_proc_2 + pi_d_a7_a9_proc_0
      + pi_d_a7_a9_proc_1 - pi_d_a9_a7_proc_2 - pi_d_a9_a7_proc_0
      - pi_d_a9_a7_proc_1 >= 0
 c30: 795 pi_p_a7_a0 + 795 pi_p_a7_a4 + 795 pi_d_a7_a1_proc_0
      + 795 pi_d_a7_a3_proc_0 + 795 pi_d_a7_a4_proc_0 + 795 pi_d_a7_a5_proc_0
      + 795 pi_d_a7_a6_proc_0 + 795 pi_d_a7_a9_proc_0 + pi_y1_a7
      + pi_y2_a7_proc_0 >= 0
 c31: 1182 pi_p_a7_a0 + 1182 pi_p_a7_a4 + 1182 pi_d_a7_a0_proc_1
      + 1182 pi_d_a7_a3_proc_1 + 1182 pi_d_a7_a5_proc_1 + 1182 pi_d_a7_a6_proc_1
      + 1182 pi_d_a7_a8_proc_1 + 1182 pi_d_a7_a9_proc_1 + pi_y1_a7
      + pi_y2_a7_proc_1 >= 0
 c32: 1202 pi_p_a7_a0 + 1202 pi_p_a7_a4 + 1202 pi_d_a7_a0_proc_2
      + 1202 pi_d_a7_a1_proc_2 + 1202 pi_d_a7_a3_proc_2 + 1202 pi_d_a7_a4_proc_2
      + 1202 pi_d_a7_a5_proc_2 + 1202 pi_d_a7_a6_proc_2 + 1202 pi_d_a7_a8_proc_2
      + 1202 pi_d_a7_a9_proc_2 + pi_y1_a7 + pi_y2_a7_proc_2 >= 0
 c33: 1051 pi_p_a7_a0 + 1051 pi_p_a7_a4 + 1051 pi_d_a7_a0_proc_3
      + 1051 pi_d_a7_a2_proc_3 + 1051 pi_d_a7_a3_proc_3 + 1051 pi_d_a7_a4_proc_3
      + 1051 pi_d_a7_a6_proc_3 + 1051 pi_d_a7_a8_proc_3 + pi_y1_a7
      + pi_y2_a7_proc_3 >= 0
 c34: - pi_p_a2_a8 - pi_p_a6_a8 + pi_p_a8_a3 + pi_p_a8_a7 - pi_d_a0_a8_proc_2
      - pi_d_a0_a8_proc_3 - pi_d_a0_a8_proc_1 + pi_d_a8_a0_proc_2
      + pi_d_a8_a0_proc_3 + pi_d_a8_a0_proc_1 - pi_d_a1_a8_proc_2
      + pi_d_a8_a1_proc_2 - pi_d_a2_a8_proc_3 + pi_d_a8_a2_proc_3
      - pi_d_a3_a8_proc_2 - pi_d_a3_a8_proc_3 - pi_d_a3_a8_proc_1
      + pi_d_a8_a3_proc_2 + pi_d_a8_a3_proc_3 + pi_d_a8_a3_proc_1
      - pi_d_a4_a8_proc_2 - pi_d_a4_a8_proc_3 + pi_d_a8_a4_proc_2
      + pi_d_a8_a4_proc_3 - pi_d_a5_a8_proc_2 - pi_d_a5_a8_proc_1
      + pi_d_a8_a5_proc_2 + pi_d_a8_a5_proc_1 - pi_d_a6_a8_proc_2
      - pi_d_a6_a8_proc_3 - pi_d_a6_a8_proc_1 + pi_d_a8_a6_proc_2
      + pi_d_a8_a6_proc_3 + pi_d_a8_a6_proc_1 - pi_d_a7_a8_proc_2
      - pi_d_a7_a8_proc_3 - pi_d_a7_a8_proc_1 + pi_d_a8_a7_proc_2
      + pi_d_a8_a7_proc_3 + pi_d_a8_a7_proc_1 + pi_d_a8_a9_proc_2
      + pi_d_a8_a9_proc_1 - pi_d_a9_a8_proc_2 - pi_d_a9_a8_proc_1 >= 0
 c35: 1133 pi_p_a8_a3 + 1133 pi_p_a8_a7 + 1133 pi_d_a8_a0_proc_1
      + 1133 pi_d_a8_a3_proc_1 + 1133 pi_d_a8_a5_proc_1 + 1133 pi_d_a8_a6_proc_1
      + 1133 pi_d_a8_a7_proc_1 + 1133 pi_d_a8_a9_proc_1 + pi_y1_a8
      + pi_y2_a8_proc_1 >= 0
 c36: 804 pi_p_a8_a3 + 804 pi_p_a8_a7 + 804 pi_d_a8_a0_proc_2
      + 804 pi_d_a8_a1_proc_2 + 804 pi_d_a8_a3_proc_2 + 804 pi_d_a8_a4_proc_2
      + 804 pi_d_a8_a5_proc_2 + 804 pi_d_a8_a6_proc_2 + 804 pi_d_a8_a7_proc_2
      + 804 pi_d_a8_a9_proc_2 + pi_y1_a8 + pi_y2_a8_proc_2 >= 0
 c37: 841 pi_p_a8_a3 + 841 pi_p_a8_a7 + 841 pi_d_a8_a0_proc_3
      + 841 pi_d_a8_a2_proc_3 + 841 pi_d_a8_a3_proc_3 + 841 pi_d_a8_a4_proc_3
      + 841 pi_d_a8_a6_proc_3 + 841 pi_d_a8_a7_proc_3 + pi_y1_a8
      + pi_y2_a8_proc_3 >= 0
 c38: pi_p_a9_a0 - pi_p_a0_a9 + pi_p_a9_a7 - pi_d_a0_a9_proc_2
      - pi_d_a0_a9_proc_1 + pi_d_a9_a0_proc_2 + pi_d_a9_a0_proc_1
      - pi_d_a1_a9_proc_2 - pi_d_a1_a9_proc_0 + pi_d_a9_a1_proc_2
      + pi_d_a9_a1_proc_0 - pi_d_a3_a9_proc_2 - pi_d_a3_a9_proc_0
      - pi_d_a3_a9_proc_1 + pi_d_a9_a3_proc_2 + pi_d_a9_a3_proc_0
      + pi_d_a9_a3_proc_1 - pi_d_a4_a9_proc_2 - pi_d_a4_a9_proc_0
      + pi_d_a9_a4_proc_2 + pi_d_a9_a4_proc_0 - pi_d_a5_a9_proc_2
      - pi_d_a5_a9_proc_0 - pi_d_a5_a9_proc_1 + pi_d_a9_a5_proc_2
      + pi_d_a9_a5_proc_0 + pi_d_a9_a5_proc_1 - pi_d_a6_a9_proc_2
      - pi_d_a6_a9_proc_0 - pi_d_a6_a9_proc_1 + pi_d_a9_a6_proc_2
      + pi_d_a9_a6_proc_0 + pi_d_a9_a6_proc_1 - pi_d_a7_a9_proc_2
      - pi_d_a7_a9_proc_0 - pi_d_a7_a9_proc_1 + pi_d_a9_a7_proc_2
      + pi_d_a9_a7_proc_0 + pi_d_a9_a7_proc_1 - pi_d_a8_a9_proc_2
      - pi_d_a8_a9_proc_1 + pi_d_a9_a8_proc_2 + pi_d_a9_a8_proc_1 >= 0
 c39: 1116 pi_p_a9_a0 + 1116 pi_p_a9_a7 + 1116 pi_d_a9_a1_proc_0
      + 1116 pi_d_a9_a3_proc_0 + 1116 pi_d_a9_a4_proc_0 + 1116 pi_d_a9_a5_proc_0
      + 1116 pi_d_a9_a6_proc_0 + 1116 pi_d_a9_a7_proc_0 + pi_y1_a9
      + pi_y2_a9_proc_0 >= 0
 c40: 1061 pi_p_a9_a0 + 1061 pi_p_a9_a7 + 1061 pi_d_a9_a0_proc_1
      + 1061 pi_d_a9_a3_proc_1 + 1061 pi_d_a9_a5_proc_1 + 1061 pi_d_a9_a6_proc_1
      + 1061 pi_d_a9_a7_proc_1 + 1061 pi_d_a9_a8_proc_1 + pi_y1_a9
      + pi_y2_a9_proc_1 >= 0
 c41: 948 pi_p_a9_a0 + 948 pi_p_a9_a7 + 948 pi_d_a9_a0_proc_2
      + 948 pi_d_a9_a1_proc_2 + 948 pi_d_a9_a3_proc_2 + 948 pi_d_a9_a4_proc_2
      + 948 pi_d_a9_a5_proc_2 + 948 pi_d_a9_a6_proc_2 + 948 pi_d_a9_a7_proc_2
      + 948 pi_d_a9_a8_proc_2 + pi_y1_a9 + pi_y2_a9_proc_2 >= 0

Bounds
       pi_y1_a0 Free
       pi_y1_a1 Free
       pi_y1_a2 Free
       pi_y1_a3 Free
       pi_y1_a4 Free
       pi_y1_a5 Free
       pi_y1_a6 Free
       pi_y1_a7 Free
       pi_y1_a8 Free
       pi_y1_a9 Free
End
