benchmark/results/graph__10-1000-0.10-04_6/graph__10-1000-0.10-04_6_QuintonOs_Benders_sub.txt
solution for: Quinton Bounded Benders_dual_sub
objective: 0.00025582
status: OPTIMAL_SOLUTION(2)
pi_p_a0_a1=0.000
pi_p_a1_a2=0.000
pi_p_a4_a0=0.000
pi_p_a5_a4=0.000
pi_p_a2_a5=0.000
pi_y1_a0=-0.194
pi_y1_a1=-0.221
pi_y1_a2=-0.313
pi_y1_a4=-0.098
pi_y1_a5=-0.174
